p cnf 8 0
-1 -5 0
-1 -17 0
-1 -21 0
-5 -1 0
-5 -17 0
-5 -21 0
-17 -21 0
-21 -17 0
-9 -13 0
-9 -25 0
-9 -29 0
-13 -9 0
-13 -25 0
-13 -29 0
-25 -29 0
-29 -25 0
-33 -37 0
-33 -49 0
-33 -53 0
-37 -33 0
-37 -49 0
-37 -53 0
-49 -53 0
-53 -49 0
-41 -45 0
-41 -57 0
-41 -61 0
-45 -41 0
-45 -57 0
-45 -61 0
-57 -61 0
-61 -57 0
-2 -6 0
-2 -18 0
-2 -22 0
-6 -2 0
-6 -18 0
-6 -22 0
-18 -22 0
-22 -18 0
-10 -14 0
-10 -26 0
-10 -30 0
-14 -10 0
-14 -26 0
-14 -30 0
-26 -30 0
-30 -26 0
-34 -38 0
-34 -50 0
-34 -54 0
-38 -34 0
-38 -50 0
-38 -54 0
-50 -54 0
-54 -50 0
-42 -46 0
-42 -58 0
-42 -62 0
-46 -42 0
-46 -58 0
-46 -62 0
-58 -62 0
-62 -58 0
-3 -7 0
-3 -19 0
-3 -23 0
-7 -3 0
-7 -19 0
-7 -23 0
-19 -23 0
-23 -19 0
-11 -15 0
-11 -27 0
-11 -31 0
-15 -11 0
-15 -27 0
-15 -31 0
-27 -31 0
-31 -27 0
-35 -39 0
-35 -51 0
-35 -55 0
-39 -35 0
-39 -51 0
-39 -55 0
-51 -55 0
-55 -51 0
-43 -47 0
-43 -59 0
-43 -63 0
-47 -43 0
-47 -59 0
-47 -63 0
-59 -63 0
-63 -59 0
-4 -8 0
-4 -20 0
-4 -24 0
-8 -4 0
-8 -20 0
-8 -24 0
-20 -24 0
-24 -20 0
-12 -16 0
-12 -28 0
-12 -32 0
-16 -12 0
-16 -28 0
-16 -32 0
-28 -32 0
-32 -28 0
-36 -40 0
-36 -52 0
-36 -56 0
-40 -36 0
-40 -52 0
-40 -56 0
-52 -56 0
-56 -52 0
-44 -48 0
-44 -60 0
-44 -64 0
-48 -44 0
-48 -60 0
-48 -64 0
-60 -64 0
-64 -60 0
